50
    32    99    42    33    14    40     5    42    11    72    67    95     2    89    40    76    55    97    74    39    29    18    62     2    75    92    37    49    33    72    72    28    35    28    82    55     3    45    21    11    49    24    86    41    76    82    11    57    79    50
     2     8     3    10     8    10     7     3     4     7     8    10     4     8     8    10     4    10     2     1     3     2     4     2     1    10     2     2     1     1     8     8     9    10     3     8    10     7     2     9     7     4     1     8     7     9    10     2     8     5
  2385  2775  1693  2288  1771  1426  2443  2894  2723  1520  1444  2765  1724  1308  1441  2082  1367  2101  1497  1877  1690  1657  2394  2746  2170  2128  1353  2617  2761  1508  1317  1295  2010  1576  1789  2095  1969  1289  2290  2815  2436  2785  2911  1243  1984  2828  1936  1657  1904  2699
